============================[ Problem Statistics ]=============================|                                                                             ||  Number of variables:          4242                                         ||  Number of clauses:           10040                                         ||  Parse time:                   0.43 s                                       ||                                                                             |============================[ Search Statistics ]==============================| Conflicts |          ORIGINAL         |          LEARNT          | Progress ||           |    Vars  Clauses Literals |    Limit  Clauses Lit/Cl |          |===============================================================================|       100 |    1591     6245   683196 |     2289      100     53 | 62.501 % |===============================================================================restarts              : 3conflicts             : 244            (374 /sec)decisions             : 508            (0.00 % random) (778 /sec)propagations          : 11739          (17977 /sec)conflict literals     : 18305          (94.93 % deleted)CPU time              : 0.653 sSATISFIABLE